
******************************************************************************
This program contains Ipopt, a library for large-scale nonlinear optimization.
 Ipopt is released as open source code under the Eclipse Public License (EPL).
         For more information visit http://projects.coin-or.org/Ipopt

This version of Ipopt was compiled from source code available at
    https://github.com/IDAES/Ipopt as part of the Institute for the Design of
    Advanced Energy Systems Process Systems Engineering Framework (IDAES PSE
    Framework) Copyright (c) 2018-2019. See https://github.com/IDAES/idaes-pse.

This version of Ipopt was compiled using HSL, a collection of Fortran codes
    for large-scale scientific computation.  All technical papers, sales and
    publicity material resulting from use of the HSL codes within IPOPT must
    contain the following acknowledgement:
        HSL, a collection of Fortran codes for large-scale scientific
        computation. See http://www.hsl.rl.ac.uk.
******************************************************************************

This is Ipopt version 3.13.2, running with linear solver ma27.

Number of nonzeros in equality constraint Jacobian...:      808
Number of nonzeros in inequality constraint Jacobian.:        0
Number of nonzeros in Lagrangian Hessian.............:      702

Total number of variables............................:      351
                     variables with only lower bounds:      108
                variables with lower and upper bounds:      189
                     variables with only upper bounds:        0
Total number of equality constraints.................:      350
Total number of inequality constraints...............:        0
        inequality constraints with only lower bounds:        0
   inequality constraints with lower and upper bounds:        0
        inequality constraints with only upper bounds:        0

iter    objective    inf_pr   inf_du lg(mu)  ||d||  lg(rg) alpha_du alpha_pr  ls
   0  0.0000000e+00 4.79e-01 1.78e-15  -1.0 0.00e+00    -  0.00e+00 0.00e+00   0
   1  3.9801144e-01 4.16e-01 1.98e+03  -1.0 2.86e+05    -  6.77e-01 1.36e-01h  1
   2  4.5123321e-01 4.12e-01 2.05e+03  -1.0 3.12e+05    -  7.02e-01 1.00e-02h  1
   3  2.9490301e+01 6.91e-02 1.56e+04  -1.0 3.21e+05    -  7.07e-01 9.90e-01h  1
   4  4.0565482e+01 2.99e-03 3.92e+02  -1.0 6.42e+04    -  9.34e-01 9.90e-01h  1
   5  4.1018438e+01 3.44e-05 3.49e+01  -1.0 2.52e+03    -  9.90e-01 9.90e-01h  1
   6  4.1019298e+01 3.39e-05 1.14e+07  -1.0 5.29e+02    -  9.90e-01 1.55e-02f  7
   7  4.1022854e+01 3.28e-05 2.24e+07  -1.0 1.15e+03    -  9.90e-01 3.09e-02f  6
   8  4.1135954e+01 5.88e-04 3.47e+05  -1.0 1.14e+03    -  1.00e+00 9.90e-01h  1
   9  4.1134992e+01 5.86e-06 1.23e+07  -1.0 1.02e+01    -  1.00e+00 9.90e-01h  1
iter    objective    inf_pr   inf_du lg(mu)  ||d||  lg(rg) alpha_du alpha_pr  ls
  10  4.1134980e+01 5.86e-08 1.23e+09  -1.0 1.22e-01    -  1.00e+00 9.90e-01h  1
  11  4.1134980e+01 5.85e-10 1.23e+11  -1.0 1.22e-03    -  1.00e+00 9.90e-01h  1
In iteration 11, 27 Slacks too small, adjusting variable bounds
  12  4.1134980e+01 6.48e-12 1.23e+13  -1.0 1.22e-05    -  1.00e+00 9.90e-01h  1
  13  4.1134980e+01 2.83e-12 9.96e-02  -1.0 1.56e-07    -  1.00e+00 1.00e+00h  1
  14  4.1134973e+01 2.10e-12 1.25e+13  -9.0 1.32e+03    -  9.98e-01 5.39e-05f 15
  15  4.1134966e+01 4.15e-12 1.25e+13  -9.0 1.17e+03    -  9.99e-01 6.10e-05f 15
  16  4.1134963e+01 4.55e-12 1.25e+13  -9.0 1.17e+03    -  1.00e+00 3.05e-05f 16
  17  4.1134960e+01 5.51e-12 1.25e+13  -9.0 1.17e+03    -  1.00e+00 3.05e-05f 16
  18  4.1134959e+01 5.45e-12 1.25e+13  -9.0 1.17e+03    -  1.00e+00 3.81e-06f 19
  19  4.1023281e+01 6.74e-04 1.36e+05  -9.0 1.17e+03    -  1.00e+00 1.00e+00f  1
iter    objective    inf_pr   inf_du lg(mu)  ||d||  lg(rg) alpha_du alpha_pr  ls
  20  4.1022267e+01 2.49e-09 1.75e-04  -9.0 1.02e+01    -  1.00e+00 1.00e+00h  1
  21  4.1022267e+01 2.15e-12 1.46e-11  -9.0 7.00e-05    -  1.00e+00 1.00e+00h  1

Number of Iterations....: 21

                                   (scaled)                 (unscaled)
Objective...............:   4.1022267327073351e+01    4.1022267327073351e+01
Dual infeasibility......:   1.4551915228366852e-11    1.4551915228366852e-11
Constraint violation....:   2.1489476864644530e-12    2.1489476864644530e-12
Complementarity.........:   9.0909100415205968e-10    9.0909100415205968e-10
Overall NLP error.......:   1.4540294063298997e-11    9.0909100415205968e-10


Number of objective function evaluations             = 127
Number of objective gradient evaluations             = 22
Number of equality constraint evaluations            = 127
Number of inequality constraint evaluations          = 0
Number of equality constraint Jacobian evaluations   = 22
Number of inequality constraint Jacobian evaluations = 0
Number of Lagrangian Hessian evaluations             = 21
Total CPU secs in IPOPT (w/o function evaluations)   =      0.047
Total CPU secs in NLP function evaluations           =      0.958

EXIT: Optimal Solution Found.
